n = 50;
m = 3;
capacities = [213, 215, 249];
profits = [535, 729, 758, 862, 19, 27, 178, 187, 195, 395, 966, 809, 424, 562, 183, 647, 359, 764, 480, 219, 603, 890, 204, 411, 421, 253, 521, 304, 853, 846, 396, 503, 373, 381, 672, 310, 665, 723, 216, 916, 199, 551, 389, 380, 228, 459, 584, 992, 990, 61];
weights = [34, 14, 71, 75, 45, 92, 29, 35, 22, 36, 17, 32, 16, 24, 51, 35, 52, 57, 93, 11, 99, 95, 38, 83, 16, 87, 57, 28, 30, 14, 77, 95, 70, 32, 75, 97, 57, 26, 57, 37, 56, 85, 19, 86, 33, 50, 78, 89, 59, 84];
